c SAT Generator for power-law distributed variable frequencies
c -g u -v 20 -c 91 -k 3 -p 2.750000 -b 3.200000 -f /home/schmidt/Devel/ni-kop-sat/data/ensemble/ruf20-91/ruf20-91-92 -u 1 -U 1 -s 3111007162
p cnf 20 91
5 7 -16 0
5 9 14 0
-2 -14 -16 0
-2 -12 19 0
-1 -5 8 0
5 -15 -16 0
-9 15 -17 0
-6 7 16 0
-4 -8 17 0
-4 -14 16 0
-1 15 16 0
1 -7 14 0
-5 -14 16 0
-9 -15 -16 0
3 -7 10 0
4 7 -12 0
-1 -10 20 0
7 -9 -17 0
-4 -11 -18 0
4 8 -15 0
7 8 15 0
10 15 19 0
-1 8 16 0
1 10 -16 0
-6 8 10 0
4 7 10 0
2 3 15 0
-4 7 12 0
7 -8 20 0
-5 11 19 0
-2 -5 -9 0
1 -14 -16 0
2 4 16 0
5 9 16 0
-2 4 8 0
6 8 13 0
-3 6 12 0
3 -6 20 0
-13 -17 -18 0
1 6 -16 0
-5 9 19 0
-6 -7 -18 0
-2 -3 9 0
3 4 10 0
8 14 -18 0
10 12 18 0
12 -15 -18 0
7 13 16 0
10 -14 -19 0
5 -11 -16 0
13 16 20 0
-10 14 -18 0
-4 -6 -15 0
1 15 16 0
-5 14 -17 0
6 -17 19 0
8 -9 16 0
6 7 -18 0
12 15 -18 0
-4 -16 17 0
3 11 -13 0
-1 7 -19 0
-2 3 -15 0
-7 -14 15 0
-5 13 -15 0
-2 -10 20 0
-6 -17 18 0
-12 14 15 0
1 3 16 0
-3 6 16 0
2 3 13 0
7 -14 16 0
-6 -13 -14 0
-3 -7 9 0
-4 -6 -14 0
-7 -9 15 0
-4 9 16 0
1 -5 -16 0
-4 5 7 0
-1 5 -8 0
-9 11 14 0
-8 9 12 0
-11 12 13 0
-3 -10 -12 0
13 -16 -17 0
7 11 15 0
6 8 16 0
-5 -16 18 0
1 10 -20 0
7 -14 -18 0
-10 19 -20 0
